
630.0
630.0
630.0
630.0
630.0
630.0
630.0
630.0
660.0
660.0
630.0
630.0
630.0
630.0
630.0
630.0
630.0
630.0
630.0
1080.0
1140.0
630.0
630.0
630.0
630.0
630.0
630.0
630.0
630.0
630.0
630.0
630.0
630.0
630.0
630.0
630.0
630.0
630.0
630.0
630.0
630.0
840.0
660.0
630.0
630.0
630.0
630.0
630.0
630.0
630.0